SDVRP instances/p10/p10_1090_tsplib0_splitx10_0.vrp
NAME:.\SDVRP_splitx10_
BEST_KNOWN: 0
COMMENT: 0
DIMENSION: 1170
CAPACITY: 2000
EDGE_WEIGHT_FORMAT: FUNCTION
EDGE_WEIGHT_TYPE: EXACT_2D
NODE_COORD_SECTION
1 0.00000 0.00000
2 -13 -13
3 -13 -13
4 -13 -13
5 -13 -13
6 -13 -13
7 -13 -13
8 -13 -13
9 -13 -13
10 1 -9
11 1 -9
12 1 -9
13 1 -9
14 -14 10
15 -14 10
16 -14 10
17 -14 10
18 -14 10
19 10 0
20 10 0
21 10 0
22 10 0
23 10 0
24 10 0
25 10 0
26 10 0
27 20 -15
28 20 -15
29 20 -15
30 20 -15
31 20 -15
32 20 -15
33 20 -15
34 -2 -1
35 -2 -1
36 -2 -1
37 -2 -1
38 -2 -1
39 -2 -1
40 -2 -1
41 -2 -1
42 -2 -1
43 15 15
44 15 15
45 15 15
46 15 15
47 15 15
48 15 15
49 15 15
50 15 15
51 20 10
52 20 10
53 20 10
54 20 10
55 20 10
56 20 10
57 -9 24
58 -9 24
59 -9 24
60 -9 24
61 5 31
62 5 31
63 5 31
64 5 31
65 20 30
66 20 30
67 20 30
68 20 30
69 20 30
70 20 30
71 20 30
72 20 30
73 20 30
74 0 16
75 0 16
76 0 16
77 0 16
78 27 0
79 27 0
80 27 0
81 27 0
82 27 0
83 27 22
84 27 22
85 27 22
86 27 22
87 27 22
88 27 -11
89 27 -11
90 27 -11
91 27 -11
92 27 -11
93 -14 1
94 -14 1
95 -14 1
96 -14 1
97 -14 1
98 -14 1
99 -2 9
100 -2 9
101 -2 9
102 -2 9
103 -26 21
104 -26 21
105 -26 21
106 -26 21
107 27 13
108 27 13
109 27 13
110 27 13
111 27 13
112 27 13
113 27 13
114 27 13
115 31 -21
116 31 -21
117 31 -21
118 31 -21
119 31 -21
120 31 -21
121 31 -21
122 9 -22
123 9 -22
124 9 -22
125 9 -22
126 9 -22
127 -9 -22
128 -9 -22
129 -9 -22
130 -9 -22
131 -24 -7
132 -24 -7
133 -24 -7
134 -24 -7
135 -24 -7
136 -28 8
137 -28 8
138 -28 8
139 -28 8
140 -28 8
141 -28 8
142 -18 29
143 -18 29
144 -18 29
145 -18 29
146 -18 29
147 -18 29
148 -18 29
149 -18 29
150 6 11
151 6 11
152 6 11
153 6 11
154 6 11
155 6 11
156 6 11
157 6 11
158 20 -1
159 20 -1
160 20 -1
161 20 -1
162 0 -19
163 0 -19
164 0 -19
165 0 -19
166 0 -19
167 0 -19
168 17 -9
169 17 -9
170 17 -9
171 8 -9
172 8 -9
173 8 -9
174 8 -9
175 8 -9
176 -4 41
177 -4 41
178 -4 41
179 -4 41
180 -4 41
181 -4 41
182 -4 41
183 -4 41
184 -13 18
185 -13 18
186 -13 18
187 -13 18
188 -13 18
189 -13 18
190 -13 18
191 -13 18
192 -9 -6
193 -9 -6
194 -9 -6
195 -9 -6
196 -9 -6
197 -9 -6
198 15 5
199 15 5
200 15 5
201 15 5
202 20 15
203 20 15
204 20 15
205 20 15
206 20 15
207 20 15
208 20 15
209 20 15
210 19 -25
211 19 -25
212 19 -25
213 19 -25
214 19 -25
215 19 -25
216 25 -20
217 25 -20
218 25 -20
219 25 -20
220 25 -20
221 25 -20
222 12 31
223 12 31
224 12 31
225 12 31
226 12 31
227 12 31
228 12 31
229 -5 25
230 -5 25
231 -5 25
232 -5 25
233 -5 25
234 -5 25
235 -5 25
236 -5 15
237 -5 15
238 -5 15
239 -5 15
240 -5 15
241 -5 15
242 -5 15
243 -23 -18
244 -23 -18
245 -20 -21
246 -20 -21
247 -19 -16
248 -19 -16
249 -19 -16
250 -19 -16
251 -14 13
252 -14 13
253 -14 13
254 -14 13
255 -14 13
256 -14 13
257 15 -5
258 15 -5
259 15 -5
260 15 -5
261 16 7
262 16 7
263 16 7
264 16 7
265 16 7
266 15 -20
267 15 -20
268 15 -20
269 15 -20
270 15 -20
271 15 -20
272 15 -20
273 15 -20
274 13 -14
275 13 -14
276 13 -14
277 13 -14
278 13 -14
279 13 -14
280 13 -14
281 -23 3
282 -23 3
283 -23 3
284 -23 3
285 -23 3
286 -23 3
287 -23 3
288 -23 3
289 2 17
290 2 17
291 2 17
292 2 17
293 2 17
294 2 17
295 2 17
296 2 17
297 2 17
298 14 14
299 14 14
300 14 14
301 14 14
302 14 14
303 14 14
304 17 29
305 17 29
306 17 29
307 17 29
308 17 29
309 17 29
310 -15 -9
311 -15 -9
312 -15 -9
313 5 -5
314 5 -5
315 5 -5
316 5 -5
317 5 -5
318 5 -5
319 5 -5
320 5 -5
321 -14 12
322 -14 12
323 -14 12
324 -14 12
325 -14 12
326 -14 12
327 -14 12
328 -14 12
329 -14 12
330 -18 28
331 -18 28
332 -18 28
333 -18 28
334 -18 28
335 -18 28
336 -18 28
337 -4 27
338 -4 27
339 -4 27
340 -4 27
341 -4 27
342 -4 27
343 -4 27
344 17 -2
345 17 -2
346 17 -2
347 17 -2
348 17 -2
349 16 -14
350 16 -14
351 16 -14
352 16 -14
353 7 6
354 7 6
355 7 6
356 7 6
357 7 6
358 -4 -3
359 -4 -3
360 -4 -3
361 -4 -3
362 -4 -3
363 -30 -10
364 -30 -10
365 -30 -10
366 -23 7
367 -23 7
368 -23 7
369 1 -19
370 1 -19
371 1 -19
372 1 -19
373 1 -19
374 1 -19
375 17 6
376 17 6
377 17 6
378 17 6
379 17 6
380 17 6
381 -8 -12
382 -8 -12
383 -8 -12
384 -8 -12
385 -8 -12
386 -8 -12
387 -18 -2
388 -18 -2
389 -18 -2
390 -18 -2
391 -18 -2
392 -18 -2
393 -18 -2
394 -18 -2
395 -22 -22
396 -22 -22
397 -22 -22
398 -22 -22
399 22 23
400 22 23
401 22 23
402 22 23
403 22 23
404 22 23
405 22 23
406 22 23
407 22 23
408 27 7
409 27 7
410 27 7
411 27 7
412 27 7
413 27 7
414 27 7
415 27 7
416 27 7
417 7 22
418 7 22
419 7 22
420 7 22
421 7 22
422 7 22
423 -19 22
424 -19 22
425 -19 22
426 -19 22
427 -19 22
428 -19 22
429 -27 17
430 -27 17
431 -27 17
432 -27 17
433 -27 17
434 -27 17
435 -27 17
436 -28 3
437 -28 3
438 -28 3
439 -28 3
440 -28 3
441 -28 3
442 -28 3
443 -28 3
444 -28 3
445 -28 3
446 -8 33
447 -8 33
448 -8 33
449 -8 33
450 -8 33
451 -5 13
452 -5 13
453 -5 13
454 -5 13
455 8 32
456 8 32
457 8 32
458 8 32
459 8 32
460 8 32
461 23 13
462 23 13
463 23 13
464 23 13
465 23 13
466 23 13
467 23 13
468 23 -8
469 23 -8
470 23 -8
471 23 -8
472 23 -8
473 2 34
474 2 34
475 2 34
476 2 34
477 2 34
478 2 34
479 2 34
480 2 34
481 3 11
482 3 11
483 3 11
484 3 11
485 3 11
486 3 11
487 11 -25
488 11 -25
489 11 -25
490 11 -25
491 11 -25
492 26 -2
493 26 -2
494 26 -2
495 26 -2
496 26 -2
497 26 -2
498 26 -2
499 26 -2
500 27 28
501 27 28
502 27 28
503 27 28
504 28 34
505 28 34
506 28 34
507 28 34
508 28 34
509 28 34
510 28 34
511 28 34
512 28 34
513 -3 -13
514 -3 -13
515 -3 -13
516 -3 -13
517 -3 -13
518 -3 -13
519 10 0
520 10 0
521 10 0
522 10 0
523 10 0
524 10 0
525 10 0
526 10 0
527 10 0
528 24 -20
529 24 -20
530 24 -20
531 24 -20
532 24 -20
533 24 -20
534 24 -20
535 24 -20
536 24 -20
537 -30 -29
538 -30 -29
539 -30 -29
540 -30 -29
541 -30 -29
542 -30 -29
543 -30 -29
544 -30 -29
545 -25 -18
546 -25 -18
547 -25 -18
548 -25 -18
549 -25 -18
550 -25 -18
551 -25 -18
552 -14 -25
553 -14 -25
554 -14 -25
555 -14 -25
556 -14 -25
557 -30 29
558 -30 29
559 -30 29
560 -30 29
561 -30 29
562 -5 -20
563 -5 -20
564 -5 -20
565 -5 -20
566 -5 -20
567 -5 -20
568 4 -25
569 4 -25
570 4 -25
571 4 -25
572 4 -25
573 -3 4
574 -3 4
575 -3 4
576 -3 4
577 -3 4
578 -3 4
579 -3 4
580 -3 4
581 -10 -3
582 -10 -3
583 -10 -3
584 -10 -3
585 -10 -3
586 -10 -3
587 -10 -3
588 -10 20
589 -10 20
590 -10 20
591 -10 20
592 -10 20
593 -10 20
594 13 -7
595 13 -7
596 13 -7
597 13 -7
598 13 -7
599 13 -7
600 21 2
601 21 2
602 21 2
603 21 2
604 21 2
605 6 14
606 6 14
607 6 14
608 6 14
609 6 14
610 0 -18
611 0 -18
612 0 -18
613 0 -18
614 0 -18
615 0 -18
616 0 -18
617 20 10
618 20 10
619 20 10
620 20 10
621 20 10
622 20 10
623 20 10
624 20 10
625 20 -15
626 20 -15
627 20 -15
628 20 -15
629 -20 -5
630 -20 -5
631 -20 -5
632 -20 -5
633 -20 -5
634 -20 -5
635 -10 -5
636 -10 -5
637 -10 -5
638 -15 15
639 -15 15
640 -15 15
641 -15 15
642 -15 15
643 -25 8
644 -25 8
645 -25 8
646 -25 8
647 20 25
648 20 25
649 20 25
650 20 25
651 20 25
652 20 25
653 20 25
654 20 25
655 -5 25
656 -5 25
657 -5 25
658 -15 30
659 -15 30
660 -15 30
661 -15 30
662 -15 30
663 -15 30
664 -15 30
665 -15 30
666 15 0
667 15 0
668 15 0
669 15 0
670 15 0
671 15 0
672 15 0
673 15 0
674 -5 -10
675 -5 -10
676 -5 -10
677 -5 -10
678 -5 -10
679 -5 -10
680 -20 -25
681 -20 -25
682 -5 -30
683 -5 -30
684 -5 -30
685 -5 -30
686 -5 -30
687 -5 -30
688 -5 -30
689 -25 -15
690 -25 -15
691 -25 -15
692 -25 -15
693 -30 -5
694 -30 -5
695 -30 -5
696 -15 5
697 -15 5
698 -15 5
699 -15 5
700 -15 5
701 -15 5
702 -15 5
703 -15 5
704 -20 25
705 -20 25
706 -20 25
707 -20 25
708 -20 25
709 -20 25
710 -20 25
711 10 30
712 10 30
713 10 30
714 10 30
715 10 30
716 10 -15
717 10 -15
718 10 -15
719 10 -15
720 10 -15
721 10 -15
722 10 -15
723 10 -15
724 10 -25
725 10 -25
726 10 -25
727 10 -25
728 10 -25
729 20 -30
730 20 -30
731 20 -30
732 20 -30
733 20 -30
734 20 -30
735 20 -30
736 30 0
737 30 0
738 30 0
739 30 0
740 30 0
741 30 -15
742 30 -15
743 30 -15
744 10 -5
745 10 -5
746 10 -5
747 10 -5
748 10 -5
749 0 5
750 0 5
751 0 5
752 0 5
753 0 5
754 0 5
755 6 2
756 6 2
757 6 2
758 6 2
759 6 2
760 6 2
761 6 2
762 6 2
763 29 7
764 29 7
765 29 7
766 29 7
767 29 7
768 29 7
769 29 7
770 29 7
771 5 25
772 5 25
773 5 25
774 5 25
775 5 25
776 5 25
777 5 25
778 5 25
779 -4 17
780 -4 17
781 -4 17
782 -4 17
783 -4 17
784 0 34
785 0 34
786 0 34
787 0 34
788 18 17
789 18 17
790 18 17
791 18 17
792 18 17
793 18 17
794 18 17
795 18 17
796 30 20
797 30 20
798 30 20
799 30 20
800 30 20
801 30 20
802 28 30
803 28 30
804 28 30
805 28 30
806 28 30
807 28 30
808 28 30
809 -33 25
810 -33 25
811 -33 25
812 -33 25
813 -33 25
814 -33 25
815 -33 25
816 -15 -15
817 -15 -15
818 -15 -15
819 -15 -15
820 -15 -15
821 -30 -30
822 -30 -30
823 -30 -30
824 -30 -30
825 -30 -30
826 -30 -30
827 -30 -30
828 -30 -30
829 25 -23
830 25 -23
831 25 -23
832 25 -23
833 5 -10
834 5 -10
835 5 -10
836 5 -10
837 5 -10
838 5 -10
839 7 -28
840 7 -28
841 7 -28
842 7 -28
843 7 -28
844 7 -28
845 -11 -23
846 -11 -23
847 -11 -23
848 -11 -23
849 -11 -23
850 -11 -23
851 -11 -23
852 -11 -23
853 -12 -32
854 -12 -32
855 -12 -32
856 -12 -32
857 -12 -32
858 -12 -32
859 -12 -32
860 -12 -32
861 -12 -32
862 -24 -21
863 -24 -21
864 -24 -21
865 -24 -21
866 -24 -21
867 -24 -21
868 -29 3
869 -29 3
870 -29 3
871 -29 3
872 -29 3
873 -29 3
874 -33 13
875 -33 13
876 -33 13
877 -33 13
878 -33 13
879 -33 13
880 -27 21
881 -27 21
882 -27 21
883 -27 21
884 -27 21
885 -27 21
886 -27 21
887 -22 17
888 -22 17
889 -22 17
890 -22 17
891 -22 17
892 -22 17
893 -22 17
894 -22 17
895 -22 17
896 -22 17
897 -29 33
898 -29 33
899 -29 33
900 -29 33
901 -29 33
902 12 12
903 12 12
904 12 12
905 12 12
906 12 12
907 12 12
908 12 12
909 12 12
910 14 23
911 14 23
912 14 23
913 14 23
914 14 23
915 14 23
916 14 23
917 -8 8
918 -8 8
919 -8 8
920 -8 8
921 -8 8
922 -8 8
923 -8 8
924 2 -4
925 2 -4
926 2 -4
927 2 -4
928 2 -4
929 2 -4
930 22 -6
931 22 -6
932 22 -6
933 22 -6
934 22 -6
935 22 -6
936 22 -6
937 22 -6
938 22 -6
939 28 -12
940 28 -12
941 28 -12
942 28 -12
943 28 -12
944 28 -12
945 28 -12
946 18 -23
947 18 -23
948 18 -23
949 18 -23
950 -3 -23
951 -3 -23
952 -3 -23
953 -3 -23
954 1 -9
955 1 -9
956 1 -9
957 1 -9
958 -14 -11
959 -14 -11
960 -14 -11
961 -14 -11
962 -14 -11
963 -14 -11
964 -14 -11
965 -18 -1
966 -18 -1
967 -18 -1
968 -18 -1
969 -23 -11
970 -23 -11
971 -23 -11
972 -23 -11
973 -23 -11
974 -23 -11
975 -11 23
976 -8 34
977 -8 34
978 -20 42
979 -20 42
980 -20 42
981 -20 42
982 27 42
983 27 42
984 14 38
985 14 38
986 32 -30
987 32 -30
988 32 -30
989 32 -30
990 32 -30
991 32 -30
992 21 4
993 21 4
994 21 4
995 21 4
996 21 4
997 21 4
998 21 4
999 21 4
1000 21 4
1001 2 12
1002 2 12
1003 2 12
1004 2 12
1005 2 12
1006 2 21
1007 2 21
1008 2 21
1009 22 33
1010 12 -19
1011 12 -19
1012 12 -19
1013 12 -19
1014 12 -19
1015 12 -19
1016 9 -18
1017 9 -18
1018 9 -18
1019 9 -18
1020 9 -18
1021 9 -18
1022 11 -22
1023 11 -22
1024 11 -22
1025 11 -22
1026 11 -22
1027 11 -22
1028 11 -22
1029 11 -22
1030 14 -24
1031 14 -24
1032 14 -24
1033 14 -24
1034 14 7
1035 14 7
1036 14 7
1037 14 7
1038 14 7
1039 14 7
1040 14 7
1041 14 7
1042 18 8
1043 18 8
1044 18 8
1045 18 8
1046 18 8
1047 18 8
1048 26 17
1049 26 17
1050 26 17
1051 26 17
1052 22 13
1053 22 13
1054 22 13
1055 22 13
1056 22 13
1057 21 2
1058 21 2
1059 21 2
1060 21 2
1061 20 19
1062 20 19
1063 20 19
1064 20 19
1065 20 19
1066 20 19
1067 20 19
1068 20 19
1069 -20 12
1070 -20 12
1071 -20 12
1072 -20 12
1073 -20 12
1074 -21 2
1075 -21 2
1076 -21 2
1077 -21 2
1078 -21 2
1079 -21 2
1080 -24 -4
1081 -24 -4
1082 -24 -4
1083 -24 -4
1084 -24 -4
1085 -24 -4
1086 -24 -4
1087 -19 -13
1088 -19 -13
1089 -19 -13
1090 -31 -17
1091 -31 -17
1092 -7 -17
1093 -7 -17
1094 -7 -17
1095 -7 -17
1096 -7 -17
1097 -9 17
1098 -9 17
1099 -9 17
1100 -9 17
1101 -9 17
1102 -9 17
1103 -9 17
1104 -9 0
1105 -9 0
1106 -9 0
1107 -9 0
1108 -9 0
1109 -4 32
1110 -4 32
1111 -4 32
1112 -4 32
1113 -4 32
1114 -20 -16
1115 -20 -16
1116 -20 -16
1117 -20 -16
1118 -20 -16
1119 -20 -16
1120 -13 -13
1121 -13 -13
1122 -13 -13
1123 -13 -13
1124 -13 -13
1125 -13 -13
1126 -13 -13
1127 -17 -11
1128 -17 -11
1129 -17 -11
1130 -17 -11
1131 -17 -11
1132 -17 -11
1133 -17 -11
1134 -9 -8
1135 -9 -8
1136 -9 -8
1137 -9 -8
1138 -9 -8
1139 -9 -8
1140 -10 -11
1141 -10 -11
1142 -10 -11
1143 -10 -11
1144 -10 -11
1145 -13 -8
1146 -13 -8
1147 -13 -8
1148 -10 -14
1149 -10 -14
1150 -10 -14
1151 -10 -14
1152 -10 -14
1153 -10 -14
1154 -16 -14
1155 -16 -14
1156 -16 -14
1157 -16 -14
1158 -16 -14
1159 -16 -14
1160 -16 -14
1161 -16 -14
1162 -16 -14
1163 -16 -14
1164 -15 -9
1165 -15 -9
1166 -15 -9
1167 -15 -9
1168 -17 -17
1169 -17 -17
1170 -17 -17
DEMAND_SECTION
1 0
2 400
3 400
4 400
5 200
6 100
7 20
8 20
9 20
10 400
11 400
12 20
13 10
14 400
15 100
16 20
17 20
18 20
19 400
20 400
21 200
22 20
23 20
24 20
25 20
26 10
27 400
28 400
29 400
30 400
31 20
32 20
33 10
34 400
35 400
36 400
37 200
38 100
39 20
40 20
41 20
42 10
43 400
44 400
45 100
46 20
47 20
48 20
49 20
50 10
51 200
52 100
53 20
54 20
55 20
56 10
57 400
58 100
59 20
60 10
61 200
62 20
63 20
64 10
65 400
66 400
67 400
68 200
69 20
70 20
71 20
72 20
73 10
74 400
75 400
76 20
77 10
78 400
79 400
80 100
81 20
82 20
83 400
84 400
85 200
86 20
87 10
88 400
89 400
90 400
91 100
92 20
93 400
94 200
95 20
96 20
97 20
98 10
99 200
100 100
101 20
102 10
103 400
104 400
105 200
106 10
107 400
108 400
109 400
110 200
111 100
112 20
113 20
114 20
115 400
116 400
117 200
118 20
119 20
120 20
121 10
122 200
123 100
124 20
125 20
126 20
127 400
128 400
129 400
130 10
131 400
132 400
133 400
134 20
135 20
136 400
137 400
138 200
139 100
140 20
141 10
142 400
143 400
144 400
145 200
146 20
147 20
148 20
149 10
150 400
151 400
152 400
153 100
154 20
155 20
156 20
157 10
158 200
159 20
160 20
161 10
162 400
163 400
164 400
165 200
166 20
167 20
168 400
169 20
170 20
171 200
172 100
173 20
174 20
175 20
176 400
177 400
178 400
179 200
180 100
181 20
182 20
183 20
184 400
185 400
186 400
187 200
188 20
189 20
190 20
191 20
192 400
193 400
194 400
195 200
196 100
197 20
198 400
199 100
200 20
201 20
202 400
203 400
204 400
205 200
206 100
207 20
208 20
209 10
210 400
211 400
212 100
213 20
214 20
215 20
216 400
217 400
218 400
219 200
220 20
221 20
222 400
223 400
224 100
225 20
226 20
227 20
228 10
229 400
230 400
231 100
232 20
233 20
234 20
235 10
236 400
237 400
238 400
239 200
240 100
241 20
242 10
243 400
244 100
245 200
246 100
247 400
248 400
249 400
250 10
251 400
252 400
253 400
254 20
255 20
256 20
257 400
258 400
259 400
260 400
261 400
262 200
263 20
264 20
265 10
266 400
267 400
268 100
269 20
270 20
271 20
272 20
273 10
274 400
275 400
276 20
277 20
278 20
279 20
280 10
281 400
282 400
283 400
284 200
285 100
286 20
287 20
288 10
289 400
290 400
291 200
292 100
293 20
294 20
295 20
296 20
297 10
298 400
299 400
300 400
301 20
302 20
303 20
304 400
305 400
306 400
307 20
308 20
309 10
310 200
311 100
312 20
313 400
314 400
315 400
316 400
317 20
318 20
319 20
320 10
321 400
322 400
323 400
324 100
325 20
326 20
327 20
328 20
329 10
330 400
331 400
332 400
333 100
334 20
335 20
336 20
337 400
338 200
339 20
340 20
341 20
342 20
343 10
344 400
345 400
346 400
347 100
348 20
349 400
350 400
351 20
352 20
353 400
354 200
355 100
356 20
357 20
358 400
359 400
360 400
361 400
362 10
363 400
364 200
365 20
366 400
367 200
368 100
369 400
370 200
371 20
372 20
373 20
374 10
375 400
376 200
377 100
378 20
379 20
380 20
381 400
382 400
383 100
384 20
385 20
386 20
387 400
388 400
389 400
390 200
391 100
392 20
393 20
394 20
395 200
396 100
397 20
398 20
399 400
400 400
401 400
402 400
403 100
404 20
405 20
406 20
407 10
408 400
409 400
410 400
411 200
412 100
413 20
414 20
415 20
416 20
417 400
418 400
419 400
420 400
421 100
422 10
423 400
424 400
425 400
426 400
427 20
428 10
429 400
430 400
431 400
432 200
433 100
434 20
435 20
436 400
437 400
438 400
439 400
440 100
441 20
442 20
443 20
444 20
445 10
446 200
447 20
448 20
449 20
450 20
451 400
452 200
453 100
454 20
455 400
456 400
457 200
458 100
459 20
460 10
461 400
462 400
463 400
464 100
465 20
466 20
467 10
468 400
469 400
470 200
471 100
472 10
473 400
474 400
475 400
476 200
477 20
478 20
479 20
480 20
481 400
482 400
483 400
484 20
485 20
486 10
487 400
488 200
489 20
490 20
491 10
492 400
493 400
494 400
495 20
496 20
497 20
498 20
499 10
500 400
501 400
502 400
503 20
504 400
505 400
506 400
507 400
508 100
509 20
510 20
511 20
512 10
513 400
514 400
515 400
516 200
517 20
518 20
519 400
520 400
521 400
522 400
523 100
524 20
525 20
526 20
527 10
528 400
529 400
530 400
531 200
532 20
533 20
534 20
535 20
536 10
537 400
538 400
539 400
540 200
541 100
542 20
543 20
544 20
545 200
546 100
547 20
548 20
549 20
550 20
551 10
552 400
553 400
554 400
555 200
556 100
557 400
558 400
559 200
560 100
561 20
562 400
563 20
564 20
565 20
566 20
567 10
568 400
569 400
570 400
571 400
572 100
573 400
574 400
575 400
576 20
577 20
578 20
579 20
580 10
581 400
582 400
583 400
584 200
585 20
586 20
587 20
588 400
589 400
590 400
591 200
592 20
593 10
594 400
595 400
596 20
597 20
598 20
599 20
600 400
601 400
602 400
603 200
604 20
605 200
606 100
607 20
608 20
609 20
610 400
611 400
612 400
613 20
614 20
615 20
616 10
617 400
618 400
619 400
620 200
621 20
622 20
623 20
624 10
625 400
626 400
627 400
628 200
629 400
630 400
631 400
632 400
633 100
634 20
635 400
636 400
637 100
638 400
639 100
640 20
641 20
642 10
643 200
644 100
645 20
646 20
647 400
648 400
649 200
650 20
651 20
652 20
653 20
654 10
655 400
656 200
657 100
658 400
659 400
660 400
661 400
662 20
663 20
664 20
665 10
666 400
667 400
668 400
669 400
670 20
671 20
672 20
673 10
674 400
675 400
676 400
677 20
678 20
679 20
680 200
681 20
682 400
683 200
684 20
685 20
686 20
687 20
688 10
689 400
690 400
691 400
692 100
693 400
694 400
695 20
696 400
697 200
698 100
699 20
700 20
701 20
702 20
703 10
704 400
705 400
706 400
707 200
708 100
709 20
710 10
711 400
712 400
713 400
714 200
715 20
716 400
717 400
718 400
719 400
720 20
721 20
722 20
723 20
724 400
725 200
726 100
727 20
728 20
729 400
730 400
731 100
732 20
733 20
734 20
735 20
736 200
737 20
738 20
739 20
740 20
741 400
742 400
743 10
744 400
745 400
746 400
747 20
748 20
749 400
750 400
751 200
752 20
753 20
754 10
755 400
756 400
757 400
758 400
759 100
760 20
761 20
762 10
763 400
764 400
765 100
766 20
767 20
768 20
769 20
770 10
771 400
772 400
773 400
774 20
775 20
776 20
777 20
778 10
779 400
780 400
781 100
782 20
783 10
784 400
785 400
786 400
787 10
788 400
789 400
790 200
791 100
792 20
793 20
794 20
795 10
796 400
797 400
798 400
799 200
800 20
801 20
802 400
803 400
804 400
805 100
806 20
807 20
808 20
809 400
810 400
811 400
812 200
813 20
814 20
815 20
816 400
817 400
818 200
819 100
820 20
821 400
822 400
823 200
824 20
825 20
826 20
827 20
828 10
829 400
830 200
831 100
832 10
833 400
834 200
835 20
836 20
837 20
838 20
839 400
840 400
841 400
842 400
843 100
844 10
845 400
846 400
847 200
848 20
849 20
850 20
851 20
852 10
853 400
854 400
855 200
856 100
857 20
858 20
859 20
860 20
861 10
862 400
863 400
864 200
865 100
866 20
867 10
868 400
869 20
870 20
871 20
872 20
873 10
874 400
875 400
876 400
877 20
878 20
879 10
880 400
881 400
882 400
883 20
884 20
885 20
886 20
887 400
888 400
889 400
890 400
891 100
892 20
893 20
894 20
895 20
896 10
897 400
898 100
899 20
900 20
901 10
902 400
903 400
904 200
905 20
906 20
907 20
908 20
909 10
910 400
911 200
912 100
913 20
914 20
915 20
916 10
917 400
918 400
919 100
920 20
921 20
922 20
923 10
924 200
925 100
926 20
927 20
928 20
929 10
930 400
931 400
932 400
933 400
934 100
935 20
936 20
937 20
938 10
939 400
940 400
941 20
942 20
943 20
944 20
945 10
946 400
947 400
948 100
949 10
950 200
951 20
952 20
953 10
954 400
955 400
956 400
957 100
958 200
959 100
960 20
961 20
962 20
963 20
964 10
965 400
966 100
967 20
968 10
969 400
970 400
971 200
972 20
973 20
974 10
975 200
976 400
977 20
978 200
979 20
980 20
981 10
982 400
983 10
984 200
985 10
986 400
987 400
988 400
989 200
990 20
991 10
992 400
993 400
994 400
995 400
996 100
997 20
998 20
999 20
1000 20
1001 400
1002 100
1003 20
1004 20
1005 20
1006 200
1007 20
1008 20
1009 200
1010 400
1011 400
1012 400
1013 200
1014 20
1015 10
1016 400
1017 400
1018 100
1019 20
1020 20
1021 10
1022 400
1023 400
1024 200
1025 100
1026 20
1027 20
1028 20
1029 20
1030 400
1031 100
1032 20
1033 20
1034 400
1035 400
1036 200
1037 100
1038 20
1039 20
1040 20
1041 20
1042 400
1043 400
1044 20
1045 20
1046 20
1047 20
1048 400
1049 400
1050 400
1051 10
1052 400
1053 400
1054 200
1055 20
1056 20
1057 400
1058 400
1059 100
1060 20
1061 400
1062 400
1063 400
1064 200
1065 100
1066 20
1067 20
1068 10
1069 400
1070 400
1071 400
1072 20
1073 20
1074 400
1075 200
1076 20
1077 20
1078 20
1079 20
1080 400
1081 400
1082 200
1083 100
1084 20
1085 20
1086 10
1087 400
1088 200
1089 20
1090 400
1091 200
1092 400
1093 400
1094 400
1095 200
1096 20
1097 400
1098 400
1099 400
1100 200
1101 100
1102 20
1103 20
1104 400
1105 100
1106 20
1107 20
1108 10
1109 400
1110 400
1111 100
1112 20
1113 20
1114 400
1115 400
1116 20
1117 20
1118 20
1119 10
1120 400
1121 400
1122 100
1123 20
1124 20
1125 20
1126 20
1127 400
1128 400
1129 400
1130 400
1131 20
1132 20
1133 20
1134 400
1135 400
1136 400
1137 400
1138 20
1139 20
1140 400
1141 20
1142 20
1143 20
1144 10
1145 200
1146 100
1147 10
1148 400
1149 400
1150 200
1151 100
1152 20
1153 10
1154 400
1155 400
1156 400
1157 200
1158 100
1159 20
1160 20
1161 20
1162 20
1163 10
1164 400
1165 400
1166 400
1167 100
1168 400
1169 200
1170 100
DEPOT_SECTION
1
-1
EOF