SDVRP instances/p10/p10_1090_tsplib0_splitx10_0.sol
1169 -7 1119 1 1120 6 4 3 1121 1141 1140 1142 -11 956 12 516 514 512 517 513 515 673 676 -15 16 17 14 13 327 326 320 324 321 325 322 328 323 -23 526 25 20 668 666 667 665 669 670 672 671 -29 26 627 27 625 170 -30 32 31 218 220 985 987 988 989 986 990 829 831 -38 35 34 36 33 37 39 40 41 -43 48 49 45 787 791 205 201 202 204 206 208 -59 56 57 58 588 587 591 592 589 590 1101 1102 -69 65 70 72 71 66 64 67 68 303 307 914 913 -74 73 75 76 296 288 289 293 290 291 292 295 -78 80 498 491 492 495 493 494 497 496 160 159 158 157 -81 77 79 738 735 736 737 739 414 415 411 408 409 410 413 412 -85 84 82 86 499 500 502 501 402 -88 89 87 468 467 -96 95 93 94 633 632 629 628 630 631 -97 92 699 701 698 697 702 700 696 695 917 916 -99 101 780 654 231 234 230 786 785 784 783 751 753 -100 98 241 237 240 235 236 238 239 451 453 -102 104 105 103 881 882 880 893 891 892 890 -107 106 108 113 111 110 112 109 462 -122 123 125 124 121 1028 1023 1024 1021 1022 1026 1015 1019 1018 -126 555 551 553 552 554 382 -129 128 127 850 848 847 844 851 845 849 846 -133 130 968 970 971 973 1113 1114 1117 1118 1116 1115 1159 1161 1162 1160 -134 132 131 1080 1079 1082 1081 1084 1085 1083 -144 146 142 147 148 145 143 141 333 332 424 427 -150 155 156 608 606 607 604 605 418 419 417 -152 151 153 149 154 904 902 901 903 908 -167 118 114 116 115 119 120 117 830 828 -183 185 425 422 1068 -192 193 360 358 357 -195 1126 1129 1128 1127 1131 962 961 960 957 -197 1037 1034 1033 1040 1039 1036 1038 352 356 353 -211 213 209 212 210 214 729 734 730 733 731 732 728 -216 217 215 219 534 527 532 531 530 535 533 -224 984 983 474 478 473 475 472 477 476 479 63 62 60 61 1007 1006 -245 244 866 863 861 864 865 862 242 243 1132 1130 -253 250 255 252 251 254 638 637 639 641 640 918 921 922 920 919 -257 256 259 258 593 -260 264 262 1043 1045 1041 1042 378 376 374 377 198 200 199 760 -263 261 1046 1044 54 53 207 203 1047 1049 1048 1050 -281 287 284 280 282 283 1073 1075 1078 1076 -285 286 437 441 435 438 443 444 872 869 867 868 871 870 1077 1074 -294 1005 771 770 772 776 777 420 416 421 -302 300 44 42 46 47 297 298 301 299 906 907 905 -311 310 1166 1163 1165 309 1164 1146 1144 1145 -317 173 174 171 172 278 273 274 275 277 279 276 350 349 351 348 -318 315 314 313 312 316 319 924 923 926 927 -330 334 329 331 335 190 187 188 189 184 186 577 578 576 -338 337 339 1110 180 181 182 175 179 177 176 178 773 775 774 1002 1004 -342 336 341 340 1109 1108 1111 1112 976 975 447 446 445 448 449 -345 344 343 346 347 18 522 22 21 24 525 523 524 -355 354 83 799 798 796 800 797 795 -359 361 196 191 194 634 635 636 -366 367 365 642 136 138 139 440 436 442 439 -371 370 369 841 842 838 840 839 843 -372 373 368 166 164 162 161 163 165 613 614 612 615 -375 379 997 998 991 999 994 992 993 -385 384 380 383 381 1151 1152 1150 1147 1148 1149 -389 388 386 387 393 391 966 964 967 965 -390 392 693 692 694 364 362 363 969 972 -403 400 401 404 398 399 405 406 1064 1063 1065 -423 426 707 704 706 708 709 705 703 579 575 -433 429 428 431 430 432 434 1071 1069 1072 -452 450 1099 1098 1097 1100 1096 -458 459 454 455 456 457 711 710 -466 465 463 464 460 461 1054 1055 1051 1052 1053 -469 471 930 935 932 929 931 934 933 937 936 -470 90 91 941 942 939 944 943 938 940 740 741 742 168 169 596 597 -485 483 484 480 481 482 1000 1001 1003 750 752 -507 504 505 506 511 510 503 508 509 652 648 -518 521 19 519 520 -529 528 624 28 626 -548 550 546 547 549 824 826 821 820 825 538 1089 1090 585 584 -559 556 557 558 560 897 896 898 899 900 978 977 979 980 -563 566 562 565 564 561 949 611 609 610 -568 571 569 570 567 833 834 837 835 836 928 -572 573 574 748 749 -582 586 581 583 580 1103 1106 1107 1105 1104 -594 598 595 747 744 745 746 743 -623 620 621 51 622 55 617 52 618 50 619 616 1035 -644 645 643 140 137 135 875 873 874 877 876 878 -653 650 651 647 649 646 304 306 305 308 910 911 -656 232 655 233 228 229 781 779 782 778 -662 661 663 657 664 660 659 658 974 -674 1136 1134 1135 1133 -677 675 678 1095 1091 1092 1094 1093 -680 679 823 822 827 543 540 541 537 539 542 536 397 396 395 394 1138 1137 -688 690 691 689 545 544 1086 -714 712 713 225 227 223 222 226 221 915 909 912 -716 715 718 717 832 -722 719 721 720 271 272 269 267 265 266 270 268 947 948 946 945 -724 726 727 723 725 490 488 489 487 486 1030 1029 1032 1031 1027 1025 925 -755 757 756 754 761 759 758 -789 793 794 792 790 788 1060 1066 1062 1061 1067 -807 801 806 802 805 803 804 981 982 1008 -813 812 810 814 809 811 808 879 883 885 884 895 894 -818 816 815 819 817 1169 1168 1167 958 959 963 -854 853 860 859 855 857 856 858 852 685 687 682 686 683 681 684 952 950 951 -887 886 889 888 1070 -953 10 954 9 955 -996 995 407 767 765 762 763 768 769 766 764 1057 -1013 1014 1012 1011 1010 1009 1016 1020 1017 -1056 602 599 600 601 1059 603 1058 -1088 1087 248 246 247 249 1123 1124 5 1122 1143 1139 -1125 2 8 1154 1157 1158 1153 1156 1155 0 





OBJ=
5648.839
BEST_KNOWN=
0.000